NAME : rnd98_20.tsp
TYPE : TSP
DIMENSION : 20
EDGE_WEIGHT_TYPE : EUC_2D
NODE_COORD_SECTION
0 547 386
1 173 624
2 226 171
3 906 237
4 977 868
5 890 31
6 639 668
7 509 735
8 548 868
9 633 694
10 944 570
11 746 610
12 829 530
13 595 357
14 831 232
15 353 586
16 488 616
17 334 745
18 315 464
19 96 896
